% seed = 4616615

mint = 55;
% maxt = 198;

nActs = 42;
dur = [0,5,1,8,9,1,4,9,4,6,9,4,6,3,8,8,2,1,4,10,2,1,4,6,1,8,3,7,3,4,1,10,2,4,6,5,4,8,6,3,8,0];

nSkills = 4;
sreq = [| 0,0,0,0,
	| 5,5,5,0,
	| 3,6,0,0,
	| 5,0,0,7,
	| 3,3,3,2,
	| 2,0,6,0,
	| 3,0,5,2,
	| 0,5,5,7,
	| 3,2,4,5,
	| 5,0,0,4,
	| 2,3,3,4,
	| 7,7,0,0,
	| 6,0,0,6,
	| 5,0,3,4,
	| 7,0,0,5,
	| 2,2,0,3,
	| 6,6,0,6,
	| 4,4,0,3,
	| 5,7,0,0,
	| 0,6,3,2,
	| 3,5,1,3,
	| 0,0,7,7,
	| 7,7,0,0,
	| 1,4,0,4,
	| 3,3,7,6,
	| 4,0,7,0,
	| 0,4,5,4,
	| 0,7,5,0,
	| 0,4,7,7,
	| 3,3,2,3,
	| 2,2,6,3,
	| 4,0,0,4,
	| 5,2,0,6,
	| 5,0,3,5,
	| 3,2,0,4,
	| 4,4,0,4,
	| 3,4,2,2,
	| 3,0,4,4,
	| 6,0,4,0,
	| 0,2,3,0,
	| 7,3,4,2,
	| 0,0,0,0, |];

nResources = 30;
mastery = [| false,true,false,false,
	| true,false,true,true,
	| false,false,false,true,
	| false,false,true,true,
	| true,true,false,false,
	| true,false,true,true,
	| false,false,true,true,
	| false,false,false,true,
	| true,false,false,false,
	| true,false,false,false,
	| false,true,true,true,
	| false,true,false,true,
	| true,true,true,false,
	| false,true,true,true,
	| false,true,false,false,
	| true,false,false,true,
	| false,true,false,true,
	| true,false,true,false,
	| true,false,true,false,
	| true,true,false,true,
	| true,true,true,false,
	| true,false,true,false,
	| false,false,true,true,
	| false,false,true,false,
	| false,false,true,false,
	| true,true,false,true,
	| false,false,true,true,
	| true,true,true,false,
	| true,false,false,false,
	| false,true,true,false, |];

nPrecs = 73;
pred = [1,1,1,2,2,2,3,3,3,4,4,5,5,6,6,6,7,8,8,9,9,10,10,11,11,11,12,12,13,14,14,15,15,16,16,16,17,17,18,19,19,19,20,21,21,22,23,23,23,24,25,25,26,26,27,27,28,28,29,29,30,31,32,33,34,35,36,37,38,38,39,40,41];
succ = [2,3,4,11,5,6,9,20,8,18,28,34,7,9,10,23,28,41,15,29,38,26,35,12,14,38,19,13,30,21,31,27,16,17,25,37,28,31,20,26,22,24,27,41,36,29,26,24,32,36,40,32,27,30,33,36,30,32,37,39,40,33,34,34,39,38,37,40,41,39,42,42,42];

nUnrels = 482;
unpred = [2,2,2,2,2,2,2,2,2,3,3,3,3,3,3,3,3,3,3,3,3,3,3,3,3,3,4,4,4,4,4,4,4,4,4,4,4,4,4,4,4,4,4,4,4,4,4,4,4,4,4,5,5,5,5,5,5,5,5,5,5,5,5,5,5,5,5,5,5,5,5,5,5,5,5,5,5,5,5,5,6,6,6,6,6,6,6,6,6,6,6,6,6,6,6,6,6,7,7,7,7,7,7,7,7,7,7,7,7,7,7,7,7,7,7,7,7,7,7,7,7,7,7,7,7,8,8,8,8,8,8,8,8,8,8,8,8,8,8,8,8,8,9,9,9,9,9,9,9,9,9,9,9,9,9,9,9,9,9,9,9,9,9,9,9,9,9,9,10,10,10,10,10,10,10,10,10,10,10,10,10,10,10,10,10,10,10,11,11,11,11,11,11,11,11,11,11,12,12,12,12,12,12,12,12,12,12,12,12,12,12,12,13,13,13,13,13,13,13,13,13,13,13,13,13,13,13,13,13,13,13,13,13,13,13,13,13,13,14,14,14,14,14,14,14,14,14,14,14,14,14,14,14,14,14,14,15,15,15,15,15,15,15,15,15,15,15,15,16,16,16,16,16,16,16,16,16,16,16,16,16,16,17,17,17,17,17,17,17,17,17,17,17,17,17,17,17,17,18,18,18,18,18,18,18,18,18,18,18,18,18,18,18,19,19,19,19,19,19,19,19,19,19,20,20,20,20,20,20,20,20,20,20,20,20,20,20,21,21,21,21,21,21,21,21,21,21,21,21,21,21,21,21,22,22,22,22,22,22,22,22,22,22,22,22,22,22,22,23,23,23,23,23,23,23,24,24,24,24,24,24,24,24,24,24,24,24,24,24,25,25,25,25,25,25,25,25,25,25,25,25,26,26,26,26,26,26,26,27,27,27,27,27,27,27,27,28,28,28,28,28,28,28,28,29,29,29,29,29,29,29,29,29,30,30,30,30,30,30,30,30,30,30,31,31,31,31,31,31,31,32,32,32,32,32,32,32,33,33,33,33,33,33,34,34,34,34,34,34,35,35,35,36,36,36,37,37,37,38,39,39,40];
unsucc = [3,4,8,15,16,17,18,20,25,4,5,6,7,10,11,12,13,14,18,19,21,22,23,24,26,35,5,6,7,8,9,10,11,12,13,14,15,16,17,19,21,22,23,24,25,26,29,31,35,38,41,6,8,9,10,11,12,13,14,15,16,17,18,19,20,21,22,23,24,25,26,27,29,31,33,35,36,37,38,41,7,8,11,12,13,14,15,16,17,18,19,20,21,22,25,28,31,8,9,10,11,12,13,14,15,16,17,18,19,20,21,22,23,24,25,26,27,29,31,33,35,36,37,38,41,9,10,11,12,13,14,18,19,20,21,22,23,24,26,29,35,38,10,11,12,13,14,15,16,17,18,19,20,21,22,23,24,25,26,27,28,30,31,32,33,34,35,36,11,12,13,14,15,16,17,18,19,20,21,22,23,24,25,28,29,31,32,15,16,17,18,20,23,25,28,32,35,14,15,16,17,18,20,21,23,25,28,31,32,35,38,41,14,15,16,17,18,19,20,21,22,23,24,25,26,27,28,29,31,32,33,34,35,36,37,38,39,41,15,16,17,18,19,20,22,23,24,25,26,27,28,29,30,32,35,38,18,19,20,21,22,23,24,26,29,35,38,41,18,19,20,21,22,23,24,26,27,29,35,36,38,41,18,19,20,21,22,23,24,25,26,27,29,35,36,37,38,41,19,21,22,23,24,25,26,28,29,30,31,32,35,38,41,20,21,23,25,28,31,32,35,38,41,21,22,23,24,25,26,28,29,30,31,32,35,38,41,22,23,24,25,26,27,28,29,30,31,32,33,34,35,38,39,23,24,25,26,27,28,30,31,32,33,34,35,36,38,41,25,28,29,31,35,38,41,25,26,27,28,29,30,31,32,33,34,35,38,39,41,26,27,28,29,30,31,33,35,36,37,38,41,28,29,31,32,35,38,41,28,29,30,31,32,35,38,41,29,31,33,35,36,37,38,41,30,31,32,33,34,35,36,38,41,31,32,33,34,35,36,37,38,39,41,32,35,36,37,38,40,41,33,35,36,37,38,40,41,35,36,37,38,40,41,35,36,37,38,40,41,36,37,40,38,39,41,38,39,41,40,40,41,41];

USEFUL_RES = [{},
	{1,2,4,5,6,7,9,10,11,12,13,14,15,16,17,18,19,20,21,22,23,24,25,26,27,28,29,30},
	{1,2,5,6,9,10,11,12,13,14,15,16,17,18,19,20,21,22,26,28,29,30},
	{2,3,4,5,6,7,8,9,10,11,12,13,14,16,17,18,19,20,21,22,23,26,27,28,29},
	{1,2,3,4,5,6,7,8,9,10,11,12,13,14,15,16,17,18,19,20,21,22,23,24,25,26,27,28,29,30},
	{2,4,5,6,7,9,10,11,13,14,16,18,19,20,21,22,23,24,25,26,27,28,29,30},
	{2,3,4,5,6,7,8,9,10,11,12,13,14,16,17,18,19,20,21,22,23,24,25,26,27,28,29,30},
	{1,2,3,4,5,6,7,8,11,12,13,14,15,16,17,18,19,20,21,22,23,24,25,26,27,28,30},
	{1,2,3,4,5,6,7,8,9,10,11,12,13,14,15,16,17,18,19,20,21,22,23,24,25,26,27,28,29,30},
	{2,3,4,5,6,7,8,9,10,11,12,13,14,16,17,18,19,20,21,22,23,26,27,28,29},
	{1,2,3,4,5,6,7,8,9,10,11,12,13,14,15,16,17,18,19,20,21,22,23,24,25,26,27,28,29,30},
	{1,2,5,6,9,10,11,12,13,14,15,16,17,18,19,20,21,22,26,28,29,30},
	{2,3,4,5,6,7,8,9,10,11,12,13,14,16,17,18,19,20,21,22,23,26,27,28,29},
	{2,3,4,5,6,7,8,9,10,11,12,13,14,16,17,18,19,20,21,22,23,24,25,26,27,28,29,30},
	{2,3,4,5,6,7,8,9,10,11,12,13,14,16,17,18,19,20,21,22,23,26,27,28,29},
	{1,2,3,4,5,6,7,8,9,10,11,12,13,14,15,16,17,18,19,20,21,22,23,26,27,28,29,30},
	{1,2,3,4,5,6,7,8,9,10,11,12,13,14,15,16,17,18,19,20,21,22,23,26,27,28,29,30},
	{1,2,3,4,5,6,7,8,9,10,11,12,13,14,15,16,17,18,19,20,21,22,23,26,27,28,29,30},
	{1,2,5,6,9,10,11,12,13,14,15,16,17,18,19,20,21,22,26,28,29,30},
	{1,2,3,4,5,6,7,8,11,12,13,14,15,16,17,18,19,20,21,22,23,24,25,26,27,28,30},
	{1,2,3,4,5,6,7,8,9,10,11,12,13,14,15,16,17,18,19,20,21,22,23,24,25,26,27,28,29,30},
	{2,3,4,6,7,8,11,12,13,14,16,17,18,19,20,21,22,23,24,25,26,27,28,30},
	{1,2,5,6,9,10,11,12,13,14,15,16,17,18,19,20,21,22,26,28,29,30},
	{1,2,3,4,5,6,7,8,9,10,11,12,13,14,15,16,17,18,19,20,21,22,23,26,27,28,29,30},
	{1,2,3,4,5,6,7,8,9,10,11,12,13,14,15,16,17,18,19,20,21,22,23,24,25,26,27,28,29,30},
	{2,4,5,6,7,9,10,11,13,14,16,18,19,20,21,22,23,24,25,26,27,28,29,30},
	{1,2,3,4,5,6,7,8,11,12,13,14,15,16,17,18,19,20,21,22,23,24,25,26,27,28,30},
	{1,2,4,5,6,7,11,12,13,14,15,17,18,19,20,21,22,23,24,25,26,27,28,30},
	{1,2,3,4,5,6,7,8,11,12,13,14,15,16,17,18,19,20,21,22,23,24,25,26,27,28,30},
	{1,2,3,4,5,6,7,8,9,10,11,12,13,14,15,16,17,18,19,20,21,22,23,24,25,26,27,28,29,30},
	{1,2,3,4,5,6,7,8,9,10,11,12,13,14,15,16,17,18,19,20,21,22,23,24,25,26,27,28,29,30},
	{2,3,4,5,6,7,8,9,10,11,12,13,14,16,17,18,19,20,21,22,23,26,27,28,29},
	{1,2,3,4,5,6,7,8,9,10,11,12,13,14,15,16,17,18,19,20,21,22,23,26,27,28,29,30},
	{2,3,4,5,6,7,8,9,10,11,12,13,14,16,17,18,19,20,21,22,23,24,25,26,27,28,29,30},
	{1,2,3,4,5,6,7,8,9,10,11,12,13,14,15,16,17,18,19,20,21,22,23,26,27,28,29,30},
	{1,2,3,4,5,6,7,8,9,10,11,12,13,14,15,16,17,18,19,20,21,22,23,26,27,28,29,30},
	{1,2,3,4,5,6,7,8,9,10,11,12,13,14,15,16,17,18,19,20,21,22,23,24,25,26,27,28,29,30},
	{2,3,4,5,6,7,8,9,10,11,12,13,14,16,17,18,19,20,21,22,23,24,25,26,27,28,29,30},
	{2,4,5,6,7,9,10,11,13,14,16,18,19,20,21,22,23,24,25,26,27,28,29,30},
	{1,2,4,5,6,7,11,12,13,14,15,17,18,19,20,21,22,23,24,25,26,27,28,30},
	{1,2,3,4,5,6,7,8,9,10,11,12,13,14,15,16,17,18,19,20,21,22,23,24,25,26,27,28,29,30},
	{}];

POTENTIAL_ACT = [{2,3,5,8,9,11,12,16,17,18,19,20,21,23,24,25,27,28,29,30,31,33,35,36,37,40,41},
	{2,3,4,5,6,7,8,9,10,11,12,13,14,15,16,17,18,19,20,21,22,23,24,25,26,27,28,29,30,31,32,33,34,35,36,37,38,39,40,41},
	{4,5,7,8,9,10,11,13,14,15,16,17,18,20,21,22,24,25,27,29,30,31,32,33,34,35,36,37,38,41},
	{2,4,5,6,7,8,9,10,11,13,14,15,16,17,18,20,21,22,24,25,26,27,28,29,30,31,32,33,34,35,36,37,38,39,40,41},
	{2,3,4,5,6,7,8,9,10,11,12,13,14,15,16,17,18,19,20,21,23,24,25,26,27,28,29,30,31,32,33,34,35,36,37,38,39,40,41},
	{2,3,4,5,6,7,8,9,10,11,12,13,14,15,16,17,18,19,20,21,22,23,24,25,26,27,28,29,30,31,32,33,34,35,36,37,38,39,40,41},
	{2,4,5,6,7,8,9,10,11,13,14,15,16,17,18,20,21,22,24,25,26,27,28,29,30,31,32,33,34,35,36,37,38,39,40,41},
	{4,5,7,8,9,10,11,13,14,15,16,17,18,20,21,22,24,25,27,29,30,31,32,33,34,35,36,37,38,41},
	{2,3,4,5,6,7,9,10,11,12,13,14,15,16,17,18,19,21,23,24,25,26,30,31,32,33,34,35,36,37,38,39,41},
	{2,3,4,5,6,7,9,10,11,12,13,14,15,16,17,18,19,21,23,24,25,26,30,31,32,33,34,35,36,37,38,39,41},
	{2,3,4,5,6,7,8,9,10,11,12,13,14,15,16,17,18,19,20,21,22,23,24,25,26,27,28,29,30,31,32,33,34,35,36,37,38,39,40,41},
	{2,3,4,5,7,8,9,10,11,12,13,14,15,16,17,18,19,20,21,22,23,24,25,27,28,29,30,31,32,33,34,35,36,37,38,40,41},
	{2,3,4,5,6,7,8,9,10,11,12,13,14,15,16,17,18,19,20,21,22,23,24,25,26,27,28,29,30,31,32,33,34,35,36,37,38,39,40,41},
	{2,3,4,5,6,7,8,9,10,11,12,13,14,15,16,17,18,19,20,21,22,23,24,25,26,27,28,29,30,31,32,33,34,35,36,37,38,39,40,41},
	{2,3,5,8,9,11,12,16,17,18,19,20,21,23,24,25,27,28,29,30,31,33,35,36,37,40,41},
	{2,3,4,5,6,7,8,9,10,11,12,13,14,15,16,17,18,19,20,21,22,23,24,25,26,27,29,30,31,32,33,34,35,36,37,38,39,41},
	{2,3,4,5,7,8,9,10,11,12,13,14,15,16,17,18,19,20,21,22,23,24,25,27,28,29,30,31,32,33,34,35,36,37,38,40,41},
	{2,3,4,5,6,7,8,9,10,11,12,13,14,15,16,17,18,19,20,21,22,23,24,25,26,27,28,29,30,31,32,33,34,35,36,37,38,39,40,41},
	{2,3,4,5,6,7,8,9,10,11,12,13,14,15,16,17,18,19,20,21,22,23,24,25,26,27,28,29,30,31,32,33,34,35,36,37,38,39,40,41},
	{2,3,4,5,6,7,8,9,10,11,12,13,14,15,16,17,18,19,20,21,22,23,24,25,26,27,28,29,30,31,32,33,34,35,36,37,38,39,40,41},
	{2,3,4,5,6,7,8,9,10,11,12,13,14,15,16,17,18,19,20,21,22,23,24,25,26,27,28,29,30,31,32,33,34,35,36,37,38,39,40,41},
	{2,3,4,5,6,7,8,9,10,11,12,13,14,15,16,17,18,19,20,21,22,23,24,25,26,27,28,29,30,31,32,33,34,35,36,37,38,39,40,41},
	{2,4,5,6,7,8,9,10,11,13,14,15,16,17,18,20,21,22,24,25,26,27,28,29,30,31,32,33,34,35,36,37,38,39,40,41},
	{2,5,6,7,8,9,11,14,20,21,22,25,26,27,28,29,30,31,34,37,38,39,40,41},
	{2,5,6,7,8,9,11,14,20,21,22,25,26,27,28,29,30,31,34,37,38,39,40,41},
	{2,3,4,5,6,7,8,9,10,11,12,13,14,15,16,17,18,19,20,21,22,23,24,25,26,27,28,29,30,31,32,33,34,35,36,37,38,39,40,41},
	{2,4,5,6,7,8,9,10,11,13,14,15,16,17,18,20,21,22,24,25,26,27,28,29,30,31,32,33,34,35,36,37,38,39,40,41},
	{2,3,4,5,6,7,8,9,10,11,12,13,14,15,16,17,18,19,20,21,22,23,24,25,26,27,28,29,30,31,32,33,34,35,36,37,38,39,40,41},
	{2,3,4,5,6,7,9,10,11,12,13,14,15,16,17,18,19,21,23,24,25,26,30,31,32,33,34,35,36,37,38,39,41},
	{2,3,5,6,7,8,9,11,12,14,16,17,18,19,20,21,22,23,24,25,26,27,28,29,30,31,33,34,35,36,37,38,39,40,41}];
